k-points for bandstructure L-G-X-U K-G
 10
line
reciprocal
  0.5000  0.5000 0.5000 1
  0.0000  0.0000 0.0000 1
  
  0.0000  0.0000 0.0000 1
  0.0000  0.5000 0.5000 1
  
  0.0000  0.5000 0.5000 1
  0.2500  0.6250 0.6250 1

  0.3750  0.7500 0.3750 1
  0.0000  0.0000 0.0000 1
